c generated by sgen
p cnf 97 204
-2 -3 -4 0
-1 -3 -4 0
-1 -2 -4 0
-1 -2 -3 0
-6 -7 -8 0
-5 -7 -8 0
-5 -6 -8 0
-5 -6 -7 0
-10 -11 -12 0
-9 -11 -12 0
-9 -10 -12 0
-9 -10 -11 0
-14 -15 -16 0
-13 -15 -16 0
-13 -14 -16 0
-13 -14 -15 0
-18 -19 -20 0
-17 -19 -20 0
-17 -18 -20 0
-17 -18 -19 0
-22 -23 -24 0
-21 -23 -24 0
-21 -22 -24 0
-21 -22 -23 0
-26 -27 -28 0
-25 -27 -28 0
-25 -26 -28 0
-25 -26 -27 0
-30 -31 -32 0
-29 -31 -32 0
-29 -30 -32 0
-29 -30 -31 0
-34 -35 -36 0
-33 -35 -36 0
-33 -34 -36 0
-33 -34 -35 0
-38 -39 -40 0
-37 -39 -40 0
-37 -38 -40 0
-37 -38 -39 0
-42 -43 -44 0
-41 -43 -44 0
-41 -42 -44 0
-41 -42 -43 0
-46 -47 -48 0
-45 -47 -48 0
-45 -46 -48 0
-45 -46 -47 0
-50 -51 -52 0
-49 -51 -52 0
-49 -50 -52 0
-49 -50 -51 0
-54 -55 -56 0
-53 -55 -56 0
-53 -54 -56 0
-53 -54 -55 0
-58 -59 -60 0
-57 -59 -60 0
-57 -58 -60 0
-57 -58 -59 0
-62 -63 -64 0
-61 -63 -64 0
-61 -62 -64 0
-61 -62 -63 0
-66 -67 -68 0
-65 -67 -68 0
-65 -66 -68 0
-65 -66 -67 0
-70 -71 -72 0
-69 -71 -72 0
-69 -70 -72 0
-69 -70 -71 0
-74 -75 -76 0
-73 -75 -76 0
-73 -74 -76 0
-73 -74 -75 0
-78 -79 -80 0
-77 -79 -80 0
-77 -78 -80 0
-77 -78 -79 0
-82 -83 -84 0
-81 -83 -84 0
-81 -82 -84 0
-81 -82 -83 0
-86 -87 -88 0
-85 -87 -88 0
-85 -86 -88 0
-85 -86 -87 0
-90 -91 -92 0
-89 -91 -92 0
-89 -90 -92 0
-89 -90 -91 0
-93 -94 -95 0
-93 -94 -96 0
-93 -94 -97 0
-93 -95 -96 0
-93 -95 -97 0
-93 -96 -97 0
-94 -95 -96 0
-94 -95 -97 0
-94 -96 -97 0
-95 -96 -97 0
44 86 52 0
84 86 52 0
84 44 52 0
84 44 86 0
66 90 3 0
54 90 3 0
54 66 3 0
54 66 90 0
62 2 31 0
10 2 31 0
10 62 31 0
10 62 2 0
4 51 37 0
46 51 37 0
46 4 37 0
46 4 51 0
78 33 81 0
29 33 81 0
29 78 81 0
29 78 33 0
68 61 94 0
87 61 94 0
87 68 94 0
87 68 61 0
83 57 65 0
24 57 65 0
24 83 65 0
24 83 57 0
82 47 95 0
14 47 95 0
14 82 95 0
14 82 47 0
74 39 92 0
32 39 92 0
32 74 92 0
32 74 39 0
40 96 9 0
55 96 9 0
55 40 9 0
55 40 96 0
41 75 16 0
27 75 16 0
27 41 16 0
27 41 75 0
42 80 59 0
12 80 59 0
12 42 59 0
12 42 80 0
85 20 11 0
73 20 11 0
73 85 11 0
73 85 20 0
60 93 30 0
6 93 30 0
6 60 30 0
6 60 93 0
22 45 8 0
18 45 8 0
18 22 8 0
18 22 45 0
67 35 19 0
43 35 19 0
43 67 19 0
43 67 35 0
50 89 97 0
77 89 97 0
77 50 97 0
77 50 89 0
36 7 15 0
1 7 15 0
1 36 15 0
1 36 7 0
63 53 70 0
76 53 70 0
76 63 70 0
76 63 53 0
49 23 26 0
56 23 26 0
56 49 26 0
56 49 23 0
34 48 64 0
28 48 64 0
28 34 64 0
28 34 48 0
5 25 91 0
71 25 91 0
71 5 91 0
71 5 25 0
17 69 58 0
13 69 58 0
13 17 58 0
13 17 69 0
38 21 88 0
38 21 79 0
38 21 72 0
38 88 79 0
38 88 72 0
38 79 72 0
21 88 79 0
21 88 72 0
21 79 72 0
88 79 72 0
